&INFO
ammonia molecule.
MD  with norm-conserving pp
&END

&CPMD
  ........... 
  ...........
  CONVERGENCE ORBITALS
   1.0d-7   
  MAXSTEP
   800
  STRUCTURE BONDS ANGLES
  TRAJECTORY SAMPLE XYZ
    5
  TEMPERATURE 
     600
  EMASS
     800
   TIMESTEP
     ...
&END

&DFT
  FUNCTIONAL BLYP
  GC-CUTOFF
  1.0E-06
&END

&SYSTEM
  SYMMETRY
    1
  CELL
   30.0   1.0   1.0  0.0  0.0  0.0  

  CUTOFF
   70.0
&END

&ATOMS
*N_MT_BLYP.psp KLEINMAN-BYLANDER
  LMAX=P
   1
 12.4861 12.5000 13.2081  

*H_MT_BLYP.psp 
  LMAX=S
   3
 14.2893 12.5000 12.5121  
 11.6058 14.0535 12.4716  
 11.6058 10.9465 12.4716  
&END
